NAME      lp_feasible_1
ROWS
 N  obj
 L  e1
COLUMNS
    x0        obj                  0   e1                  1
    x1        obj                  0   e1                  2
    x2        obj                  0   e1                  -1
RHS
    rhs       e1                  11
BOUNDS
 LO bnd       x0                   0
 LO bnd       x1                  -3
 LO bnd       x2                   4
 UP bnd       x0                   2
 UP bnd       x1                   3
 UP bnd       x2                   6
ENDATA